week_length = 7;
nb_workers = 3;
min_daysoff = 1;
max_daysoff = 2;
min_work = 2;
max_work = 5;
nb_shifts = 3;
shift_name = ["D", "A", "N"];
shift_block_min = [2, 1, 2];
shift_block_max = [5, 4, 4];
nb_forbidden = 1;
forbidden_before = [1];
forbidden_after = [2];
temp_req = array2d(1..3,1..7,[1, 1, 1, 0, 1, 1, 0, 1, 1, 1, 1, 2, 1, 0, 0, 1, 1, 0, 0, 0, 0]);
